
  32    4
  10   10   10   10

   0   0   0   0   0   6 2 3 4 5 6 12 
   6  10  10  10  10   4 13 9 8 7 
   6  10  10  10  10   4 24 14 13 7 
   8  10  10  10  10   3 24 8 7 
   1  10  10  10  10   7 30 24 23 16 15 14 10 
   2  10  10  10  10   8 31 30 24 18 17 16 15 14 
   1  10  10  10  10   5 23 18 17 16 11 
   4  10  10  10  10   6 31 30 23 16 15 14 
   5  10  10  10  10   5 30 18 17 16 14 
  10  10  10  10  10   7 31 29 21 20 19 18 17 
   9  10  10  10  10   5 31 22 20 19 15 
   7  10  10  10  10   5 30 24 21 17 16 
   9  10  10  10  10   4 30 21 19 16 
   4  10  10  10  10   4 28 21 20 19 
   7  10  10  10  10   4 29 28 26 21 
  10  10  10  10  10   4 29 28 26 25 
   8  10  10  10  10   4 28 27 26 25 
   4  10  10  10  10   3 26 25 22 
   7  10  10  10  10   2 27 25 
   5  10  10  10  10   2 26 25 
   2  10  10  10  10   1 25 
   4  10  10  10  10   1 27 
  10  10  10  10  10   1 27 
   8  10  10  10  10   1 25 
   5  10  10  10  10   1 32
   9  10  10  10  10   1 32
   4  10  10  10  10   1 32
   2  10  10  10  10   1 32
   8  10  10  10  10   1 32
   5  10  10  10  10   1 32
   6  10  10  10  10   1 32
   0   0   0   0   0   0 
